c instance by G2
c solution = 010100001
c Known solution cost is 362 
p cnf 9 30
w 86 67 34 24 27 34 57 27 6
-1 6 8 0
-7 -5 9 0
2 1 -9 0
-9 -1 -3 0
-7 -2 6 0
2 -4 -9 0
2 5 3 0
9 3 -1 0
-6 4 -3 0
1 -4 9 0
2 6 -5 0
3 9 6 0
4 -1 -6 0
-7 3 9 0
-3 -4 2 0
-3 -8 4 0
-1 2 -7 0
7 -2 -5 0
-8 -9 -4 0
-9 -8 7 0
-3 -2 6 0
9 -4 -2 0
3 -4 9 0
-7 8 3 0
-2 -9 -7 0
-9 -6 -4 0
-6 8 -2 0
-2 4 1 0
2 5 1 0
1 5 -3 0
